4 
5  01 23 39 53 
6  02 07 12 17 23 27 33 37 42 47 52 57 
7  02 08 12 18 22 27 32 37 42 47 52 57 
8  02 07 12 17 22 27 32 37 42 47 52 57 
9  02 10 17 25 32 40 48 56 
10  03 11 20 27 35 42 50 57 
11  05 12 20 27 35 42 50 57 
12  05 12 20 27 35 42 50 57 
13  05 12 20 27 35 42 50 57 
14  05 12 20 27 36 43 48 53 58 
15  03 08 12 18 23 27 33 38 42 48 53 57 
16  03 08 12 18 23 27 33 38 42 48 53 57 
17  03 08 12 18 23 27 33 38 42 48 53 57 
18  03 08 12 18 23 27 33 38 42 48 53 
19  02 07 14 21 29 37 44 53 
20  02 11 19 26 33 41 49 56 
21  04 11 19 26 34 41 53 
22  08 23 38 53 
23  08 23 
0 
